c Problem Statistics
c Number of variables: 672
c Number of clauses: 762
c Parse time (sec.) : 0.00
c
p cnf 672 606
144 0
-38 0
72 0
132 0
-120 0
-131 0
-143 0
-130 0
-142 0
-2 0
-13 0
-14 0
-7 0
-9 0
-23 0
-37 0
-49 0
-61 0
-73 0
-46 0
-54 0
-44 0
-60 0
-65 0
-75 0
-82 0
-84 0
-97 0
-109 0
-121 0
-100 0
-101 0
-102 0
-113 0
-114 0
-90 0
-128 0
-135 0
-32 0
-35 0
-53 0
-58 0
-89 0
-70 0
-86 0
-139 0
-52 0
-98 0
-219 -26 27 -15 0
219 -26 -27 -15 0
-220 -26 27 15 0
220 -26 -27 15 0
-221 -15 26 27 0
221 -15 26 -27 0
-222 15 26 27 0
222 15 26 -27 0
-657 -129 -140 141 0
657 -141 -140 -129 0
-658 141 -140 129 0
658 -141 -140 129 0
-227 -28 29 -17 0
227 -29 -28 -17 0
-228 -28 29 17 0
228 -29 -28 17 0
-229 -17 29 28 0
229 -17 -29 28 0
-230 17 29 28 0
436 -83 71 -81 0
-437 83 -71 81 0
230 17 -29 28 0
-659 141 -129 140 0
173 -15 -3 -1 0
-174 15 3 -1 0
174 -15 3 -1 0
-175 15 1 -3 0
175 -15 1 -3 0
-176 15 1 3 0
176 -15 1 3 0
-177 -15 -4 16 0
177 -15 -4 -16 0
-178 -15 4 16 0
178 -15 4 -16 0
-179 15 -4 16 0
179 15 -4 -16 0
-180 15 4 16 0
180 15 4 -16 0
-181 -5 -16 17 0
181 -5 -16 -17 0
182 5 -16 -17 0
-183 -5 16 17 0
-647 137 -126 138 0
647 137 -126 -138 0
-648 137 138 126 0
648 137 -138 126 0
542 -110 99 -111 0
646 -137 126 -138 0
-543 111 110 -99 0
543 -111 110 -99 0
426 68 79 -80 0
-426 68 79 80 0
425 -68 79 -80 0
-425 -68 79 80 0
424 68 -79 -80 0
-424 68 -79 80 0
423 -68 -79 -80 0
-423 -68 -79 80 0
422 78 -79 67 0
-422 67 78 79 0
421 78 -79 -67 0
-421 -67 78 79 0
420 67 -79 -78 0
-542 -110 99 111 0
541 -111 -110 -99 0
-541 111 -110 -99 0
-435 83 -71 -81 0
435 -83 -81 -71 0
-436 83 71 -81 0
516 -104 92 -103 0
-516 104 92 -103 0
-173 15 -1 -3 0
659 -141 -129 140 0
196 19 8 -20 0
-643 -125 136 137 0
643 -125 136 -137 0
-644 137 136 125 0
644 -137 136 125 0
-201 -10 -21 22 0
201 -10 -21 -22 0
-202 10 -21 22 0
202 10 -21 -22 0
-203 -10 22 21 0
203 -22 -10 21 0
-204 10 22 21 0
204 -22 10 21 0
-645 -126 138 -137 0
645 -137 -138 -126 0
-209 -12 22 24 0
209 -12 22 -24 0
-210 12 22 24 0
210 12 22 -24 0
-211 -22 -12 24 0
-182 5 -16 17 0
-646 -137 138 126 0
-605 126 -115 127 0
605 126 -115 -127 0
-606 126 115 127 0
606 126 115 -127 0
-237 -19 31 30 0
237 -19 30 -31 0
-238 19 31 30 0
238 19 30 -31 0
592 112 -123 -124 0
-592 112 -123 124 0
591 -112 -123 -124 0
-591 -112 -123 124 0
590 111 122 -123 0
-590 111 122 123 0
589 -111 122 -123 0
-589 -111 122 123 0
588 111 -122 -123 0
-588 111 -122 123 0
587 -111 -122 -123 0
-587 -111 -122 123 0
-189 6 -18 19 0
189 6 -18 -19 0
-190 -6 -18 19 0
-602 126 -88 125 0
-451 -74 87 -85 0
123 -136 134 124 0
-123 -136 -134 124 0
-300 22 47 34 0
599 -126 88 -125 0
31 21 -33 20 0
57 -71 69 34 0
301 -36 -47 -48 0
-301 -36 -47 48 0
300 22 -47 34 0
299 -22 -47 34 0
660 -141 140 129 0
-235 -19 -30 31 0
-660 141 140 129 0
-600 126 -88 -125 0
601 -126 88 125 0
-601 126 88 125 0
600 -126 -88 -125 0
235 -19 -30 -31 0
211 -22 -12 -24 0
-212 -22 12 24 0
212 -24 12 -22 0
-236 31 -30 19 0
-604 -126 115 127 0
236 -31 -30 19 0
604 -126 115 -127 0
283 -31 42 -43 0
-284 42 31 43 0
284 42 31 -43 0
183 -5 16 -17 0
-184 5 16 17 0
184 5 16 -17 0
-185 -17 -6 18 0
185 -17 -6 -18 0
-186 -17 6 18 0
186 -17 6 -18 0
-187 17 -6 18 0
187 17 -6 -18 0
-188 17 6 18 0
188 6 -18 17 0
-195 19 -8 20 0
195 19 -20 -8 0
-196 19 8 20 0
641 -137 -125 -136 0
-641 137 -125 -136 0
-642 137 -136 125 0
642 -137 -136 125 0
-299 -22 47 34 0
190 -6 -18 -19 0
-191 6 18 19 0
191 6 18 -19 0
-192 -6 18 19 0
192 -6 18 -19 0
-193 -19 -8 20 0
193 -8 -20 -19 0
-194 -19 8 20 0
194 -19 8 -20 0
-302 -47 36 48 0
302 -47 36 -48 0
-303 -36 47 48 0
303 -36 47 -48 0
-304 47 36 48 0
-273 -40 -29 41 0
273 -40 -29 -41 0
-274 -40 29 41 0
-275 -29 40 41 0
274 -40 29 -41 0
-599 126 88 -125 0
602 -126 -88 125 0
-603 -126 -115 127 0
603 -126 -115 -127 0
-276 40 29 41 0
276 40 29 -41 0
594 112 123 -124 0
-594 112 123 124 0
593 -112 123 -124 0
-593 -112 123 124 0
-281 -31 -42 43 0
281 -31 -42 -43 0
-282 31 -42 43 0
282 31 -42 -43 0
-283 -31 43 42 0
576 107 118 -119 0
-576 107 118 119 0
575 -107 118 -119 0
-575 -107 118 119 0
574 107 -119 -118 0
-574 107 119 -118 0
-327 55 -42 -43 0
327 -55 -42 -43 0
-328 43 -42 55 0
328 43 -42 -55 0
-329 -43 42 55 0
329 -43 42 -55 0
-374 55 -66 67 0
374 55 -66 -67 0
-375 -55 66 67 0
-333 55 43 56 0
333 55 43 -56 0
-334 55 -43 56 0
334 55 -43 -56 0
-335 -56 57 -45 0
335 -56 -57 -45 0
-336 57 45 -56 0
336 -57 45 -56 0
-337 57 -45 56 0
337 -57 -45 56 0
-338 57 45 56 0
338 -57 45 56 0
573 -107 -119 -118 0
-573 -107 119 -118 0
572 117 -118 106 0
-572 118 106 117 0
571 117 -106 -118 0
-571 117 -106 118 0
570 -118 106 -117 0
275 -29 40 -41 0
-570 118 106 -117 0
-383 68 -57 69 0
569 -118 -106 -117 0
-569 118 -106 -117 0
568 -117 116 105 0
-568 117 116 105 0
567 -117 116 -105 0
304 47 36 -48 0
-355 62 -50 25 0
355 -62 -50 25 0
-356 62 50 25 0
356 -62 50 25 0
-62 -51 63 -357 0
357 -62 -51 -63 0
-358 63 51 -62 0
358 -62 51 -63 0
-359 62 -51 63 0
359 62 -51 -63 0
-360 63 51 62 0
360 62 51 -63 0
566 -116 105 -117 0
-566 -116 105 117 0
565 -116 -105 -117 0
-565 -116 -105 117 0
-369 64 -42 66 0
373 -55 -66 -67 0
369 64 -42 -66 0
-370 64 42 66 0
370 64 42 -66 0
-371 -64 -42 66 0
371 -64 -42 -66 0
-372 66 42 -64 0
372 42 -64 -66 0
-373 67 -55 -66 0
375 -67 -55 66 0
-376 67 55 66 0
376 -67 55 66 0
68 -67 -56 -377 0
-68 -67 -56 377 0
-378 -67 56 68 0
378 -67 56 -68 0
-379 67 -56 68 0
379 67 -56 -68 0
-380 67 56 68 0
380 67 56 -68 0
-381 -68 -57 69 0
381 -68 -57 -69 0
-382 -68 57 69 0
382 -68 -69 57 0
384 68 -69 57 0
559 -115 -103 -88 0
-559 115 -103 -88 0
-567 117 116 -105 0
-353 62 -50 -25 0
353 -62 -50 -25 0
-354 62 50 -25 0
354 -62 50 -25 0
419 -67 -79 -78 0
-420 67 79 -78 0
521 104 -93 -105 0
-521 105 -93 104 0
520 -104 93 -105 0
-520 -104 93 105 0
546 -112 -88 -111 0
-438 83 71 81 0
-547 111 88 112 0
547 111 88 -112 0
519 -104 -105 -93 0
-519 -104 105 -93 0
-548 112 -88 111 0
548 -112 -88 111 0
-522 104 105 93 0
481 -95 -94 -83 0
-482 83 -94 95 0
482 83 -94 -95 0
-483 95 -83 94 0
483 -95 -83 94 0
-484 83 94 95 0
408 64 -74 -76 0
-409 74 -64 76 0
409 74 -64 -76 0
-410 64 74 76 0
410 64 74 -76 0
-411 64 -76 77 0
411 64 -77 -76 0
-412 -76 -64 77 0
412 -77 -64 -76 0
-413 64 77 76 0
413 64 -77 76 0
-414 77 -64 76 0
414 -77 -64 76 0
-408 64 -74 76 0
407 -74 -64 -76 0
383 -57 -69 68 0
-384 68 69 57 0
545 -111 88 -112 0
534 107 96 -108 0
-545 -111 88 112 0
-546 112 -88 -111 0
544 -111 99 110 0
-544 111 99 110 0
-419 -67 79 -78 0
-532 -107 96 108 0
-449 -74 87 85 0
449 85 -87 -74 0
451 -85 -87 -74 0
438 -83 71 81 0
-539 -74 110 85 0
531 -96 -107 -108 0
-531 -96 -107 108 0
530 -107 106 95 0
-530 107 106 95 0
529 -95 -107 106 0
-529 -95 107 106 0
528 95 -107 -106 0
-528 95 107 -106 0
527 -95 -107 -106 0
-527 -95 107 -106 0
522 104 -105 93 0
-330 43 42 55 0
-481 95 -94 -83 0
330 43 42 -55 0
-331 -55 43 56 0
331 -55 43 -56 0
-332 -55 -43 56 0
332 -55 -43 -56 0
488 95 -96 -83 0
-488 95 96 -83 0
487 95 83 -96 0
-487 95 83 96 0
486 -95 -83 -96 0
-486 -95 -83 96 0
485 83 -96 -95 0
107 96 108 -534 0
-485 83 96 -95 0
484 83 -95 94 0
533 -96 107 -108 0
-533 -96 107 108 0
532 -107 96 -108 0
-540 74 110 85 0
539 -74 -110 85 0
540 74 -110 85 0
-407 -74 -64 76 0
437 -83 -71 81 0
-577 -119 -108 0
-578 -119 108 0
-579 -108 119 0
-580 108 119 0
310 -25 -50 0
-310 -25 50 0
308 25 -50 0
-308 25 50 0
-267 -27 39 0
267 -39 -27 0
-268 27 39 0
268 27 -39 0
64 -63 -40 0
-148 3 -1 0
443 -25 -85 0
161 -10 -8 0
-22 -34 33 0
22 -34 -33 0
-22 34 -33 0
148 -3 -1 0
149 -3 -4 0
94 -81 -93 0
-149 -3 4 0
123 136 -134 0
-557 115 88 0
-123 134 136 0
134 133 -122 0
-26 -1 25 0
628 85 -133 0
-628 85 133 0
28 -27 -16 0
-31 -20 -33 0
-91 80 92 0
77 88 91 0
627 -85 -133 0
-627 -85 133 0
18 30 -29 0
-147 3 1 0
147 -3 1 0
-22 34 36 0
-24 -36 -34 0
-43 45 33 0
157 6 -8 0
-158 -6 8 0
158 -6 -8 0
78 -66 -77 0
-151 -4 5 0
-161 10 -8 0
-42 30 41 0
-162 10 8 0
162 -10 8 0
-163 -10 11 0
28 -40 39 0
-165 -11 12 0
164 10 -11 0
-164 10 11 0
163 -10 -11 0
-20 31 33 0
-31 33 20 0
-150 3 4 0
150 3 -4 0
-36 -24 22 0
152 4 -5 0
-57 59 -47 0
-63 64 51 0
-153 6 -5 0
153 -6 -5 0
-154 6 5 0
-50 51 39 0
154 -6 5 0
-157 6 8 0
-560 115 103 0
557 -115 88 0
-47 -34 59 0
79 -88 -91 0
-74 62 -25 0
-62 74 -25 0
105 106 -94 0
-125 -124 88 0
-91 79 -77 0
-62 -74 25 0
-166 11 12 0
166 11 -12 0
165 -11 -12 0
-74 87 -99 0
-443 -25 85 0
57 34 -59 0
452 74 -87 0
-452 74 87 0
-444 25 85 0
-57 59 71 0
-34 59 71 0
-537 -85 110 0
151 -4 -5 0
-152 4 5 0
138 140 -127 0
-515 104 -92 0
515 -104 -92 0
-518 104 103 0
444 25 -85 0
518 -104 103 0
298 -34 -47 0
-298 -34 47 0
-69 81 80 0
560 -115 103 0
214 -25 -1 0
-214 -1 25 0
-25 213 1 0
-213 25 1 0
110 -85 -122 0
125 -88 -124 0
22 34 33 0
125 124 88 0
-125 124 -88 0
62 74 25 0
8 21 20 0
-92 -93 -81 0
-117 129 127 0
-129 117 127 0
59 71 -69 0
-88 -103 91 0
117 -127 129 0
-129 -117 -127 0
115 -104 116 0
74 85 99 0
-51 -64 40 0
-99 87 -85 0
537 -110 -85 0
-88 -76 -87 0
-91 103 0
-138 -140 0
-118 129 0
-8 -21 0
-25 26 0
1 26 0
47 -59 0
76 88 0
-20 -21 0
16 -28 0
87 88 0
27 -28 0
-115 -116 0
104 -116 0
-92 -80 0
-92 91 0
-110 122 0
85 122 0
93 92 0
136 -124 0
122 -134 0
93 -94 0
81 93 0
43 -45 0
77 -78 0
94 -106 0
81 -94 0
-106 -105 0
88 103 0
-140 127 0
99 -87 0
-33 -45 0
-18 -30 0
50 -51 0
-51 -39 0
-71 -59 0
-78 66 0
-41 42 0
42 -30 0
-133 -134 0
63 -64 0
69 -81 0
-79 91 0
-39 40 0
40 -28 0
36 24 0
-21 33 0
-30 29 0
-80 -81 0
c restarts              : 503
c conflicts             : 30             (769 /sec)
c decisions             : 267960         (0.00 % random) (6871826 /sec)
c propagations          : 395055         (10131174 /sec)
c conflict literals     : 135            (0.00 % deleted)
c CPU time (sec.): 0.038994
